* ENCODING=ISO-8859-1
NAME          CPLEX
ROWS
 N  obj1    
 G  c1      
 G  c2      
 G  c3      
 G  c4      
 G  c5      
 G  c6      
 G  c7      
 G  c8      
 G  c9      
 G  c10     
 G  c11     
 G  c12     
 G  c13     
 G  c14     
 G  c15     
 G  c16     
 G  c17     
 G  c18     
 G  c19     
 G  c20     
 G  c21     
 G  c22     
 G  c23     
 G  c24     
 G  c25     
 G  c26     
 G  c27     
 G  c28     
 G  c29     
 G  c30     
 G  c31     
 G  c32     
 G  c33     
 G  c34     
 G  c35     
 G  c36     
 G  c37     
 G  c38     
 G  c39     
 G  c40     
 G  c41     
 G  c42     
 G  c43     
 G  c44     
 G  c45     
 G  c46     
 G  c47     
 G  c48     
 G  c49     
 G  c50     
COLUMNS
    MARK0000  'MARKER'                 'INTORG'
    x1        obj1                            1
    x1        c6                            640
    x1        c9                            526
    x1        c11                           268
    x1        c16                           761
    x1        c46                           613
    x2        obj1                            1
    x2        c8                            408
    x2        c25                           625
    x2        c38                           943
    x2        c41                           540
    x2        c43                           231
    x3        obj1                            1
    x3        c6                            526
    x3        c13                           939
    x3        c14                           393
    x3        c28                           771
    x3        c29                           980
    x3        c37                           674
    x3        c45                           727
    x4        obj1                            1
    x4        c10                           314
    x4        c12                           881
    x4        c17                           734
    x4        c24                           957
    x4        c30                           455
    x4        c36                           119
    x4        c40                           202
    x4        c44                           845
    x5        obj1                            1
    x5        c22                           923
    x5        c23                           798
    x5        c25                           906
    x5        c27                           773
    x5        c30                           594
    x5        c40                           272
    x5        c48                           143
    x5        c49                           825
    x6        obj1                            1
    x6        c4                            584
    x6        c9                            298
    x7        obj1                            1
    x7        c34                           244
    x7        c41                           288
    x7        c45                           934
    x8        obj1                            1
    x8        c5                            220
    x8        c21                           845
    x9        obj1                            1
    x9        c10                           637
    x9        c28                           361
    x9        c44                           456
    x9        c47                           125
    x10       obj1                            1
    x10       c30                           413
    x11       obj1                            1
    x11       c6                            828
    x11       c19                           702
    x11       c25                           100
    x11       c26                           889
    x11       c45                           791
    x12       obj1                            1
    x12       c7                            485
    x12       c19                           889
    x12       c25                           677
    x13       obj1                            1
    x13       c14                           932
    x13       c15                           217
    x13       c23                           901
    x13       c39                           591
    x14       obj1                            1
    x14       c3                            446
    x14       c12                           959
    x14       c26                           990
    x14       c28                           416
    x14       c38                           551
    x14       c42                           429
    x14       c44                           414
    x14       c47                           635
    x14       c48                           901
    x15       obj1                            1
    x15       c1                            516
    x15       c13                           559
    x15       c29                           661
    x16       obj1                            1
    x16       c3                            218
    x16       c18                           190
    x16       c25                           128
    x16       c50                           471
    x17       obj1                            1
    x17       c14                           785
    x17       c15                           115
    x17       c23                           596
    x17       c35                           887
    x17       c45                           445
    x18       obj1                            1
    x18       c1                            892
    x18       c50                           173
    x19       obj1                            1
    x19       c10                           653
    x19       c12                           874
    x19       c14                           786
    x19       c25                           725
    x19       c45                           115
    x20       obj1                            1
    x20       c28                           998
    x20       c32                           544
    x20       c36                           741
    x21       obj1                            1
    x21       c2                            336
    x21       c5                            695
    x21       c30                           726
    x21       c36                           890
    x21       c48                           693
    x22       obj1                            1
    x22       c8                            461
    x22       c11                           186
    x22       c19                           626
    x22       c44                           994
    x23       obj1                            1
    x23       c2                            121
    x23       c19                           674
    x23       c27                           567
    x23       c31                           626
    x23       c39                           972
    x24       obj1                            1
    x24       c3                            361
    x24       c7                            348
    x24       c16                           233
    x24       c30                           355
    x24       c31                           459
    x24       c35                           544
    x24       c38                           454
    x24       c44                           695
    x24       c46                           677
    x25       obj1                            1
    x25       c8                            741
    x25       c21                           237
    x25       c27                           198
    x25       c34                           599
    x25       c49                           231
    x26       obj1                            1
    x26       c1                            723
    x26       c5                            642
    x26       c10                           898
    x26       c17                           604
    x26       c18                           932
    x26       c27                           319
    x26       c32                           514
    x26       c41                           901
    x26       c49                           169
    x27       obj1                            1
    x27       c7                            929
    x27       c9                            266
    x27       c21                           490
    x27       c39                           692
    x27       c48                           242
    x27       c50                           187
    x28       obj1                            1
    x28       c5                            601
    x28       c13                           680
    x28       c18                           217
    x28       c23                           474
    x28       c29                           484
    x28       c37                           222
    x28       c43                           294
    x29       obj1                            1
    x29       c7                            757
    x29       c9                            529
    x29       c10                           853
    x29       c11                           658
    x29       c20                           370
    x29       c24                           737
    x29       c27                           561
    x29       c35                           736
    x30       obj1                            1
    x30       c5                            911
    x30       c10                           959
    x30       c11                           956
    x30       c17                           873
    x30       c26                           955
    x30       c42                           715
    x31       obj1                            1
    x31       c5                            964
    x31       c33                           135
    x31       c41                           956
    x31       c49                           928
    x32       obj1                            1
    x32       c32                           706
    x32       c33                           869
    x32       c42                           802
    x33       obj1                            1
    x33       c7                            418
    x33       c12                           880
    x33       c14                           944
    x33       c41                           517
    x33       c47                           182
    x34       obj1                            1
    x34       c23                           244
    x34       c24                           893
    x34       c28                           477
    x34       c47                           623
    x35       obj1                            1
    x35       c14                           962
    x35       c15                           929
    x35       c23                           813
    x35       c41                           688
    x35       c48                           405
    x36       obj1                            1
    x36       c21                           240
    x37       obj1                            1
    x37       c2                            292
    x37       c4                            472
    x37       c25                           512
    x37       c32                           306
    x38       obj1                            1
    x38       c6                            807
    x38       c9                            713
    x38       c26                           476
    x38       c38                           556
    x38       c43                           885
    x38       c46                           500
    x39       obj1                            1
    x39       c1                            380
    x39       c2                            912
    x39       c7                            824
    x39       c44                           810
    x39       c49                           597
    x40       obj1                            1
    x40       c2                            569
    x40       c29                           210
    x40       c40                           205
    x41       obj1                            1
    x41       c30                           268
    x41       c39                           673
    x41       c43                           441
    x41       c47                           270
    x41       c49                           499
    x42       obj1                            1
    x42       c20                           315
    x42       c22                           171
    x42       c29                           784
    x42       c36                           834
    x42       c47                           110
    x43       obj1                            1
    x43       c4                            295
    x43       c11                           116
    x43       c33                           784
    x44       obj1                            1
    x44       c7                            133
    x44       c9                            917
    x44       c12                           333
    x44       c21                           948
    x44       c22                           839
    x44       c23                           933
    x44       c28                           977
    x44       c39                           557
    x45       obj1                            1
    x45       c45                           545
    x46       obj1                            1
    x46       c2                            794
    x46       c5                            104
    x46       c9                            707
    x46       c16                           772
    x46       c26                           126
    x46       c35                           170
    x47       obj1                            1
    x47       c22                           524
    x47       c29                           619
    x47       c31                           535
    x47       c42                           460
    x48       obj1                            1
    x48       c12                           636
    x48       c20                           136
    x48       c37                           605
    x48       c48                           453
    x49       obj1                            1
    x49       c21                           524
    x49       c28                           486
    x49       c36                           332
    x50       obj1                            1
    x50       c30                           294
    x50       c34                           393
    x50       c50                           453
    MARK0001  'MARKER'                 'INTEND'
RHS
    rhs       c1                           1256
    rhs       c2                           1512
    rhs       c3                            513
    rhs       c4                            676
    rhs       c5                           2069
    rhs       c6                           1401
    rhs       c7                           1947
    rhs       c8                            805
    rhs       c9                           1978
    rhs       c10                          2157
    rhs       c11                          1092
    rhs       c12                          2282
    rhs       c13                          1089
    rhs       c14                          2401
    rhs       c15                           631
    rhs       c16                           883
    rhs       c17                          1106
    rhs       c18                           670
    rhs       c19                          1446
    rhs       c20                           411
    rhs       c21                          1642
    rhs       c22                          1229
    rhs       c23                          2380
    rhs       c24                          1294
    rhs       c25                          1837
    rhs       c26                          1718
    rhs       c27                          1209
    rhs       c28                          2243
    rhs       c29                          1869
    rhs       c30                          1553
    rhs       c31                           810
    rhs       c32                          1035
    rhs       c33                           894
    rhs       c34                           618
    rhs       c35                          1169
    rhs       c36                          1458
    rhs       c37                           751
    rhs       c38                          1252
    rhs       c39                          1743
    rhs       c40                           340
    rhs       c41                          1945
    rhs       c42                          1203
    rhs       c43                           926
    rhs       c44                          2107
    rhs       c45                          1779
    rhs       c46                           895
    rhs       c47                           973
    rhs       c48                          1419
    rhs       c49                          1625
    rhs       c50                           642
BOUNDS
 LI bnd       x1        0
 LI bnd       x2        0
 LI bnd       x3        0
 LI bnd       x4        0
 LI bnd       x5        0
 LI bnd       x6        0
 LI bnd       x7        0
 LI bnd       x8        0
 LI bnd       x9        0
 LI bnd       x10       0
 LI bnd       x11       0
 LI bnd       x12       0
 LI bnd       x13       0
 LI bnd       x14       0
 LI bnd       x15       0
 LI bnd       x16       0
 LI bnd       x17       0
 LI bnd       x18       0
 LI bnd       x19       0
 LI bnd       x20       0
 LI bnd       x21       0
 LI bnd       x22       0
 LI bnd       x23       0
 LI bnd       x24       0
 LI bnd       x25       0
 LI bnd       x26       0
 LI bnd       x27       0
 LI bnd       x28       0
 LI bnd       x29       0
 LI bnd       x30       0
 LI bnd       x31       0
 LI bnd       x32       0
 LI bnd       x33       0
 LI bnd       x34       0
 LI bnd       x35       0
 LI bnd       x36       0
 LI bnd       x37       0
 LI bnd       x38       0
 LI bnd       x39       0
 LI bnd       x40       0
 LI bnd       x41       0
 LI bnd       x42       0
 LI bnd       x43       0
 LI bnd       x44       0
 LI bnd       x45       0
 LI bnd       x46       0
 LI bnd       x47       0
 LI bnd       x48       0
 LI bnd       x49       0
 LI bnd       x50       0
ENDATA
